c Sudoku solution
p cnf 729 0
113 0
122 0
156 0
181 0
241 0
331 0
378 0
387 0
392 0
411 0
432 0
469 0
498 0
519 0
557 0
617 0
477 0
673 0
794 0
836 0
861 0
651 0
927 0
721 0
897 0
935 0
964 0
979 0
991 0
571 0
293 0
988 0
946 0
953 0
912 0
718 0
814 0
363 0
215 0
316 0
596 0
426 0
443 0
666 0
274 0
175 0
199 0
286 0
872 0
776 0
689 0
582 0
484 0
695 0
455 0
568 0
642 0
544 0
525 0
533 0
823 0
739 0
783 0
885 0
134 0
329 0
237 0
228 0
262 0
259 0
624 0
638 0
345 0
354 0
747 0
148 0
167 0
849 0
858 0
752 0
765 0
